(set-logic QF_SLIA)
(declare-fun var0 () String)
(declare-fun var1 () String)
(declare-fun var2 () String)
(declare-fun var3 () String)
(declare-fun var4 () String)
(declare-fun var5 () String)
(declare-fun var6 () String)
(declare-fun var7 () String)
(declare-fun var8 () String)
(declare-fun var9 () String)
(declare-fun var10 () String)
(declare-fun var11 () String)
(declare-fun var12 () String)
(declare-fun var13 () String)
(declare-fun var14 () String)
(declare-fun var15 () String)
(declare-fun var16 () String)
(declare-fun var17 () String)
(declare-fun var18 () String)
(declare-fun var19 () String)
(declare-fun var20 () Int)
(declare-fun var21 () Int)
(declare-fun var22 () Int)
(declare-fun var23 () Int)
(declare-fun var24 () Bool)
(declare-fun var25 () Bool)
(assert (>= (str.indexof var11 var7 var21) (str.len "Y~3.%&VamD")))
(assert (str.suffixof var3 var13))
(assert (str.suffixof (str.substr (str.substr var17 var21 var22) (str.len var3) (str.indexof "<v'F{\\\\\\\\\\\\\\\\\\\\\\\\\\\\\\\\\\\\\\\\\\\\\\\\\\\\\\\\\\\\\\\\\\\\\\\\\\\\\\\\\\\\\\\\\\\\\\\\\\\\\\\\\\\\\\\\\\\\\\\\\\\\\\\\^11~" var0 var21)) (str.replace (str.substr var5 var20 var20) (str.substr var7 var23 var21) (str.replace var15 var16 var15))))
(assert (> (str.indexof var4 var5 8) (str.indexof var2 var4 0)))
(assert (str.contains var5 var7))
(assert (str.suffixof (str.substr var14 var20 var20) (str.replace (str.at var9 var20) (str.at var0 var20) (str.substr var18 var21 var20))))
(assert (> 5 var22))
(assert (str.suffixof (str.substr (str.at "nF0.ivxmec" var21) (str.indexof var2 var17 9) (str.indexof var2 var7 var20)) (str.replace (str.at var8 var21) (str.substr "{4g\\\\\\\\\\\\\\\\\\\\\\\\\\\\\\\\\\\\\\\\\\\\\\\\\\\\\\\\\\\\\\\\\\\\\\\\\\\\\\\\\\\\\\\\\\\\\\\\\\\\\\\\\\\\\\\\\\\\\\\\\\\\\\\\WEJe\\\\\\\\\\\\\\\\\\\\\\\\\\\\\\\\\\\\\\\\\\\\\\\\\\\\\\\\\\\\\\\\\\\\\\\\\\\\\\\\\\\\\\\\\\\\\\\\\\\\\\\\\\\\\\\\\\\\\\\\\\\\\\\\F" 2 var23) (str.at "j|<ALq#h1y" var21))))
(assert (str.prefixof (str.replace var11 var16 var11) (str.substr (str.replace var14 var8 var15) (str.len var4) (str.indexof var10 var4 var22))))
(assert (str.suffixof var18 var4))
(check-sat)